<<<<<<< HEAD
NAME : single.2742.tour
COMMENT : Length = 2742
COMMENT : Found by LKH [Keld Helsgaun] Fri Apr 29 14:58:14 2022
TYPE : TOUR
DIMENSION : 17
TOUR_SECTION
1
17
16
15
14
13
12
11
8
9
10
=======
NAME : single.2799.tour
COMMENT : Length = 2799
COMMENT : Found by LKH [Keld Helsgaun] Thu May  5 16:46:00 2022
TYPE : TOUR
DIMENSION : 19
TOUR_SECTION
1
19
16
17
18
15
14
11
10
13
>>>>>>> dev/Mads
4
3
2
5
<<<<<<< HEAD
7
6
=======
12
7
6
9
8
>>>>>>> dev/Mads
-1
EOF
